(declare-fun var0 () String)
(declare-fun var1 () String)
(declare-fun var2 () String)
(declare-fun var3 () String)
(declare-fun var4 () String)
(declare-fun var5 () String)
(declare-fun var6 () String)
(declare-fun var7 () String)
(declare-fun var8 () String)
(declare-fun var9 () String)
(declare-fun var10 () String)
(declare-fun var11 () String)
(declare-fun var12 () String)
(declare-fun var13 () String)
(declare-fun var14 () String)
(declare-fun var15 () String)
(declare-fun var16 () String)
(declare-fun var17 () String)
(declare-fun var18 () String)
(declare-fun var19 () String)
(declare-fun var20 () String)
(declare-fun var21 () String)
(declare-fun var22 () String)
(declare-fun var23 () String)
(declare-fun var24 () String)
(declare-fun var25 () String)
(declare-fun var26 () String)
(declare-fun var27 () String)
(declare-fun var28 () String)
(declare-fun var29 () String)
(declare-fun var30 () String)
(declare-fun var31 () String)
(declare-fun var32 () String)
(declare-fun var33 () String)
(declare-fun var34 () String)
(declare-fun var35 () String)
(declare-fun var36 () String)
(declare-fun var37 () String)
(declare-fun var38 () String)
(declare-fun var39 () String)
(declare-fun var40 () String)
(declare-fun var41 () String)
(declare-fun var42 () String)
(declare-fun var43 () String)
(declare-fun var44 () String)
(declare-fun var45 () String)
(declare-fun var46 () String)
(declare-fun var47 () String)
(declare-fun var48 () String)
(declare-fun var49 () String)
(declare-fun var50 () String)
(declare-fun var51 () String)
(declare-fun var52 () String)
(declare-fun var53 () String)
(declare-fun var54 () String)
(declare-fun var55 () String)
(declare-fun var56 () String)
(declare-fun var57 () String)
(declare-fun var58 () String)
(declare-fun var59 () String)
(declare-fun var60 () String)
(assert (= var0 (str.++ var1 var2)))
(assert (= var2 (str.++ var3 var4)))
(assert (= var4 (str.++ var5 var6)))
(assert (= var6 (str.++ var7 var8)))
(assert (= var8 (str.++ var9 var10)))
(assert (= var10 (str.++ var11 var12)))
(assert (= var12 (str.++ var13 var14)))
(assert (= var14 (str.++ var15 var16)))
(assert (= var16 (str.++ var17 var18)))
(assert (= var18 (str.++ var19 var20)))
(assert (= var20 (str.++ var21 var22)))
(assert (= var22 (str.++ var23 var24)))
(assert (= var24 (str.++ var25 var26)))
(assert (= var26 (str.++ var27 var28)))
(assert (= var28 (str.++ var29 var30)))
(assert (= var30 (str.++ var31 var32)))
(assert (= var32 (str.++ var33 var34)))
(assert (= var34 (str.++ var35 var36)))
(assert (= var36 (str.++ var37 var38)))
(assert (= var38 (str.++ var39 var40)))
(assert (= var40 (str.++ var41 var42)))
(assert (= var42 (str.++ var43 var44)))
(assert (= var44 (str.++ var45 var46)))
(assert (= var46 (str.++ var47 var48)))
(assert (= var48 (str.++ var49 var50)))
(assert (= var50 (str.++ var51 var52)))
(assert (= var52 (str.++ var53 var54)))
(assert (= var54 (str.++ var55 var56)))
(assert (= var56 (str.++ var57 var58)))
(assert (= var58 (str.++ var59 var60)))
(assert (= var0 "solution"))
(assert (= "S" (str.at var36 314)))
(assert (= "z" (str.at var60 293)))
(assert (= "&" (str.at var5 870)))
(assert (= "." (str.at var6 217)))
(assert (= "3" (str.at var46 195)))
(assert (= "O" (str.at var21 864)))
(assert (= "O" (str.at var56 438)))
(assert (= "?" (str.at var20 567)))
(assert (= "z" (str.at var47 257)))
(assert (= "|" (str.at var12 28)))
(assert (= "^" (str.at var20 103)))
(assert (= "q" (str.at var51 821)))
(assert (= "D" (str.at var55 887)))
(assert (= "`" (str.at var43 993)))
(assert (= "Y" (str.at var2 924)))
(assert (= "Z" (str.at var49 979)))
(assert (= """" (str.at var57 123)))
(assert (= "z" (str.at var4 388)))
(assert (= "1" (str.at var38 706)))
(assert (= "`" (str.at var54 105)))
(assert (= ">" (str.at var18 965)))
(assert (= "7" (str.at var4 993)))
(assert (= ">" (str.at var38 592)))
(assert (= "L" (str.at var5 865)))
(assert (= "5" (str.at var0 73)))
(assert (= "J" (str.at var13 437)))
(assert (= "q" (str.at var0 871)))
(assert (= "E" (str.at var5 736)))
(assert (= "N" (str.at var26 661)))
(assert (= "2" (str.at var40 784)))
(assert (= "q" (str.at var22 399)))
(assert (= "`" (str.at var10 461)))
(assert (= "$" (str.at var51 288)))
(assert (= "@" (str.at var50 683)))
(assert (= "{" (str.at var13 879)))
(assert (= "y" (str.at var60 797)))
(assert (= "A" (str.at var0 141)))
(assert (= "*" (str.at var52 52)))
(assert (= "/" (str.at var58 897)))
(assert (= "s" (str.at var3 597)))
(assert (= "Q" (str.at var3 549)))
(assert (= "`" (str.at var18 128)))
(assert (= "i" (str.at var53 908)))
(assert (= "#" (str.at var17 845)))
(assert (= "4" (str.at var38 927)))
(assert (= "x" (str.at var46 604)))
(assert (= "&" (str.at var32 986)))
(assert (= "w" (str.at var13 235)))
(assert (= "(" (str.at var19 809)))
(assert (= "R" (str.at var6 563)))
(assert (= "D" (str.at var7 270)))
(assert (= "m" (str.at var14 202)))
(assert (= "<" (str.at var28 158)))
(assert (= "E" (str.at var52 858)))
(assert (= ";" (str.at var10 589)))
(assert (= "q" (str.at var25 577)))
(assert (= "r" (str.at var51 312)))
(assert (= "J" (str.at var37 251)))
(assert (= "r" (str.at var45 563)))
(assert (= "x" (str.at var32 920)))
(assert (= "z" (str.at var24 772)))
(assert (= "\\" (str.at var12 690)))
(assert (= "J" (str.at var41 297)))
(assert (= "]" (str.at var50 401)))
(assert (= "P" (str.at var19 279)))
(assert (= "S" (str.at var40 37)))
(assert (= "Y" (str.at var0 503)))
(assert (= "N" (str.at var40 58)))
(assert (= "x" (str.at var12 196)))
(assert (= "[" (str.at var53 982)))
(assert (= "r" (str.at var5 767)))
(assert (= "(" (str.at var48 578)))
(assert (= "#" (str.at var35 374)))
(assert (= "@" (str.at var50 251)))
(assert (= "B" (str.at var25 350)))
(assert (= "$" (str.at var38 393)))
(assert (= "`" (str.at var39 421)))
(assert (= "m" (str.at var12 210)))
(assert (= "=" (str.at var20 564)))
(assert (= "c" (str.at var26 178)))
(assert (= "=" (str.at var44 863)))
(assert (= "%" (str.at var8 67)))
(assert (= "^" (str.at var58 389)))
(assert (= "-" (str.at var54 659)))
(assert (= ";" (str.at var19 33)))
(assert (= "<" (str.at var57 551)))
(assert (= "3" (str.at var14 213)))
(assert (= "G" (str.at var31 930)))
(assert (= "]" (str.at var18 489)))
(assert (= "+" (str.at var25 772)))
(assert (= "n" (str.at var22 312)))
(assert (= "%" (str.at var18 393)))
(assert (= "S" (str.at var58 612)))
(assert (= """" (str.at var31 566)))
(assert (= "x" (str.at var50 891)))
(assert (= "1" (str.at var13 532)))
(assert (= "d" (str.at var16 830)))
(assert (= "p" (str.at var7 672)))
(assert (= "*" (str.at var37 261)))
(assert (= "3" (str.at var2 967)))
(assert (= "H" (str.at var20 119)))
(assert (= "6" (str.at var27 151)))
(assert (= "P" (str.at var12 8)))
(assert (= "n" (str.at var3 37)))
(assert (= "-" (str.at var54 20)))
(assert (= "(" (str.at var16 60)))
(assert (= "i" (str.at var31 297)))
(assert (= "8" (str.at var0 605)))
(assert (= "j" (str.at var3 939)))
(assert (= "C" (str.at var33 826)))
(assert (= "H" (str.at var17 633)))
(assert (= "3" (str.at var46 611)))
(assert (= "R" (str.at var37 513)))
(assert (= "Z" (str.at var27 675)))
(assert (= "U" (str.at var57 362)))
(assert (= "4" (str.at var46 471)))
(assert (= "J" (str.at var9 377)))
(assert (= "k" (str.at var2 616)))
(assert (= "v" (str.at var60 173)))
(assert (= "e" (str.at var16 247)))
(assert (= "Q" (str.at var39 992)))
(assert (= "," (str.at var0 53)))
(assert (= "&" (str.at var43 245)))
(assert (= "_" (str.at var13 980)))
(assert (= "T" (str.at var33 752)))
(assert (= "E" (str.at var35 376)))
(assert (= "Y" (str.at var22 914)))
(assert (= "[" (str.at var55 2)))
(assert (= "}" (str.at var51 717)))
(assert (= "O" (str.at var36 540)))
(assert (= "\\" (str.at var41 457)))
(assert (= "D" (str.at var55 324)))
(assert (= "4" (str.at var17 40)))
(assert (= "!" (str.at var48 709)))
(assert (= "~" (str.at var53 785)))
(assert (= "k" (str.at var23 250)))
(assert (= "}" (str.at var16 909)))
(assert (= "&" (str.at var22 778)))
(assert (= "w" (str.at var12 361)))
(assert (= "X" (str.at var12 24)))
(assert (= "+" (str.at var39 601)))
(assert (= "s" (str.at var25 479)))
(assert (= "*" (str.at var27 307)))
(assert (= "m" (str.at var54 338)))
(assert (= "Y" (str.at var7 489)))
(assert (= "m" (str.at var51 384)))
(assert (= "}" (str.at var15 196)))
(assert (= "i" (str.at var18 246)))
(assert (= "a" (str.at var20 158)))
(assert (= "i" (str.at var56 992)))
(assert (= "m" (str.at var25 939)))
(assert (= "W" (str.at var8 950)))
(assert (= "o" (str.at var0 216)))
(assert (= "N" (str.at var8 578)))
(assert (= "y" (str.at var6 742)))
(assert (= "," (str.at var3 163)))
(assert (= "*" (str.at var51 294)))
(assert (= "-" (str.at var30 271)))
(assert (= ")" (str.at var10 478)))
(assert (= "n" (str.at var13 110)))
(assert (= """" (str.at var0 14)))
(assert (= "w" (str.at var53 844)))
(assert (= "d" (str.at var26 35)))
(assert (= "i" (str.at var5 494)))
(assert (= "J" (str.at var12 769)))
(assert (= "v" (str.at var44 561)))
(assert (= "-" (str.at var0 942)))
(assert (= "H" (str.at var53 50)))
(assert (= "I" (str.at var34 838)))
(assert (= "-" (str.at var41 461)))
(assert (= "h" (str.at var40 19)))
(assert (= "R" (str.at var56 648)))
(assert (= "i" (str.at var57 854)))
(assert (= "6" (str.at var8 520)))
(assert (= "|" (str.at var19 286)))
(assert (= "^" (str.at var8 73)))
(assert (= "l" (str.at var21 50)))
(assert (= "|" (str.at var15 775)))
(assert (= "$" (str.at var8 92)))
(assert (= "d" (str.at var56 255)))
(assert (= "*" (str.at var41 389)))
(assert (= "`" (str.at var3 666)))
(assert (= "d" (str.at var14 583)))
(assert (= "c" (str.at var14 564)))
(assert (= "n" (str.at var20 558)))
(assert (= ")" (str.at var42 559)))
(assert (= ":" (str.at var58 699)))
(assert (= "w" (str.at var57 728)))
(assert (= "d" (str.at var27 207)))
(assert (= "G" (str.at var27 539)))
(assert (= "3" (str.at var28 695)))
(assert (= "," (str.at var56 779)))
(assert (= "}" (str.at var45 826)))
(assert (= "1" (str.at var51 142)))
(assert (= "I" (str.at var20 461)))
(assert (= "5" (str.at var8 501)))
(assert (= "[" (str.at var35 459)))
(assert (= "N" (str.at var9 658)))
(assert (= "!" (str.at var0 422)))
(assert (= "." (str.at var7 985)))
(assert (= "j" (str.at var34 158)))
(assert (= "4" (str.at var42 694)))
(assert (= "<" (str.at var22 767)))
(assert (= "6" (str.at var51 202)))
(assert (= "x" (str.at var58 906)))
(assert (= "4" (str.at var2 129)))
(assert (= "d" (str.at var39 860)))
(assert (= "2" (str.at var35 79)))
(assert (= "6" (str.at var6 405)))
(assert (= "a" (str.at var0 991)))
(assert (= "Y" (str.at var36 860)))
(assert (= "r" (str.at var47 763)))
(assert (= "Y" (str.at var11 491)))
(assert (= "$" (str.at var13 869)))
(assert (= "C" (str.at var7 213)))
(assert (= "Q" (str.at var39 218)))
(assert (= "<" (str.at var3 175)))
(assert (= ";" (str.at var56 824)))
(assert (= "}" (str.at var43 144)))
(assert (= "~" (str.at var46 373)))
(assert (= "T" (str.at var52 746)))
(assert (= "x" (str.at var21 156)))
(assert (= "(" (str.at var16 522)))
(assert (= "K" (str.at var45 346)))
(assert (= "&" (str.at var55 928)))
(assert (= "o" (str.at var57 159)))
(assert (= "!" (str.at var0 914)))
(assert (= "," (str.at var37 162)))
(assert (= "$" (str.at var51 122)))
(assert (= "=" (str.at var16 572)))
(assert (= "n" (str.at var26 707)))
(assert (= "@" (str.at var26 137)))
(assert (= "V" (str.at var33 632)))
(assert (= "N" (str.at var40 864)))
(assert (= "-" (str.at var49 320)))
(assert (= "," (str.at var51 932)))
(assert (= "#" (str.at var15 50)))
(assert (= "D" (str.at var29 243)))
(assert (= "O" (str.at var14 468)))
(assert (= "'" (str.at var45 977)))
(assert (= "]" (str.at var54 460)))
(assert (= "I" (str.at var22 388)))
(assert (= ">" (str.at var15 388)))
(assert (= "1" (str.at var7 470)))
(assert (= "V" (str.at var58 132)))
(assert (= "G" (str.at var23 704)))
(assert (= ">" (str.at var7 82)))
(assert (= "h" (str.at var56 537)))
(assert (= "J" (str.at var34 67)))
(assert (= "1" (str.at var34 804)))
(assert (= ">" (str.at var8 711)))
(assert (= "'" (str.at var24 62)))
(assert (= "@" (str.at var39 251)))
(assert (= "6" (str.at var4 260)))
(assert (= "6" (str.at var54 227)))
(assert (= "d" (str.at var19 293)))
(assert (= "-" (str.at var25 702)))
(assert (= "F" (str.at var8 768)))
(assert (= "Q" (str.at var59 720)))
(assert (= ":" (str.at var47 377)))
(assert (= "{" (str.at var8 410)))
(assert (= "^" (str.at var19 373)))
(assert (= "i" (str.at var49 613)))
(assert (= "P" (str.at var47 679)))
(assert (= "x" (str.at var43 933)))
(assert (= "\\" (str.at var6 682)))
(assert (= "V" (str.at var56 807)))
(assert (= "." (str.at var38 812)))
(assert (= "g" (str.at var50 171)))
(assert (= "m" (str.at var29 946)))
(assert (= "B" (str.at var55 704)))
(assert (= "m" (str.at var17 197)))
(assert (= "#" (str.at var29 556)))
(assert (= "8" (str.at var4 617)))
(assert (= "w" (str.at var33 701)))
(assert (= "4" (str.at var15 863)))
(assert (= "<" (str.at var55 592)))
(assert (= "\\" (str.at var22 59)))
(assert (= ">" (str.at var45 311)))
(assert (= "s" (str.at var0 893)))
(assert (= "~" (str.at var30 847)))
(assert (= "(" (str.at var23 773)))
(assert (= "<" (str.at var51 675)))
(assert (= "U" (str.at var18 842)))
(assert (= "D" (str.at var30 677)))
(assert (= "G" (str.at var20 816)))
(assert (= "G" (str.at var5 463)))
(assert (= "v" (str.at var26 936)))
(assert (= "&" (str.at var18 795)))
(assert (= "*" (str.at var39 983)))
(assert (= "b" (str.at var40 410)))
(assert (= "G" (str.at var12 145)))
(assert (= "x" (str.at var6 848)))
(assert (= "Q" (str.at var2 976)))
(assert (= "g" (str.at var29 462)))
(assert (= "A" (str.at var46 16)))
(assert (= "d" (str.at var25 698)))
(assert (= "0" (str.at var52 985)))
(assert (= "Z" (str.at var33 675)))
(assert (= "R" (str.at var42 368)))
(assert (= "S" (str.at var15 147)))
(assert (= "N" (str.at var7 670)))
(assert (= "g" (str.at var24 86)))
(assert (= "p" (str.at var56 254)))
(assert (= "^" (str.at var11 623)))
(assert (= "3" (str.at var15 798)))
(assert (= "'" (str.at var39 539)))
(assert (= ";" (str.at var12 35)))
(assert (= "I" (str.at var59 207)))
(assert (= "J" (str.at var29 405)))
(assert (= "m" (str.at var6 21)))
(assert (= "e" (str.at var33 554)))
(assert (= "%" (str.at var19 313)))
(assert (= "c" (str.at var8 615)))
(assert (= "c" (str.at var27 762)))
(assert (= "C" (str.at var32 724)))
(assert (= "4" (str.at var17 689)))
(assert (= "H" (str.at var46 145)))
(assert (= "U" (str.at var6 662)))
(assert (= "@" (str.at var42 307)))
(assert (= "=" (str.at var13 932)))
(assert (= "C" (str.at var49 46)))
(assert (= "9" (str.at var37 98)))
(assert (= "d" (str.at var8 806)))
(assert (= "M" (str.at var23 360)))
(assert (= "'" (str.at var8 250)))
(assert (= "3" (str.at var60 170)))
(assert (= "K" (str.at var28 925)))
(assert (= "q" (str.at var54 683)))
(assert (= "O" (str.at var31 395)))
(assert (= "n" (str.at var25 880)))
(assert (= "`" (str.at var11 602)))
(assert (= "0" (str.at var56 871)))
(assert (= "," (str.at var43 70)))
(assert (= "?" (str.at var55 275)))
(assert (= "r" (str.at var18 782)))
(assert (= "B" (str.at var36 839)))
(assert (= "@" (str.at var2 566)))
(assert (= "+" (str.at var35 580)))
(assert (= ")" (str.at var34 395)))
(assert (= "P" (str.at var33 131)))
(assert (= "L" (str.at var52 926)))
(assert (= "B" (str.at var7 358)))
(assert (= "q" (str.at var38 181)))
(assert (= "p" (str.at var45 798)))
(assert (= "w" (str.at var36 476)))
(assert (= "p" (str.at var25 996)))
(assert (= "*" (str.at var4 495)))
(assert (= "U" (str.at var27 864)))
(assert (= "^" (str.at var10 709)))
(assert (= "S" (str.at var38 386)))
(assert (= "_" (str.at var18 206)))
(assert (= "c" (str.at var35 705)))
(assert (= "m" (str.at var10 668)))
(assert (= "(" (str.at var42 261)))
(assert (= ":" (str.at var59 895)))
(assert (= "c" (str.at var17 374)))
(assert (= "L" (str.at var32 888)))
(assert (= "s" (str.at var36 353)))
(assert (= "j" (str.at var22 26)))
(assert (= "h" (str.at var1 771)))
(assert (= "%" (str.at var18 822)))
(assert (= "b" (str.at var14 860)))
(assert (= "V" (str.at var51 29)))
(assert (= "I" (str.at var10 77)))
(assert (= "n" (str.at var16 166)))
(assert (= "," (str.at var1 570)))
(assert (= "U" (str.at var48 884)))
(assert (= "y" (str.at var56 304)))
(assert (= "Z" (str.at var7 244)))
(assert (= "Y" (str.at var55 941)))
(assert (= "h" (str.at var23 717)))
(assert (= "?" (str.at var1 166)))
(assert (= "g" (str.at var31 142)))
(assert (= "W" (str.at var41 929)))
(assert (= "(" (str.at var13 130)))
(assert (= "p" (str.at var39 774)))
(assert (= "V" (str.at var4 203)))
(assert (= "N" (str.at var48 604)))
(assert (= "K" (str.at var43 442)))
(assert (= "O" (str.at var24 231)))
(assert (= "8" (str.at var23 450)))
(assert (= "G" (str.at var4 191)))
(assert (= "$" (str.at var27 169)))
(assert (= "x" (str.at var44 629)))
(assert (= "B" (str.at var37 394)))
(assert (= "W" (str.at var27 593)))
(assert (= "2" (str.at var51 798)))
(assert (= "c" (str.at var18 337)))
(assert (= "9" (str.at var48 245)))
(assert (= "9" (str.at var0 111)))
(assert (= "n" (str.at var15 81)))
(assert (= "x" (str.at var28 77)))
(assert (= "o" (str.at var47 509)))
(assert (= "," (str.at var51 189)))
(assert (= "5" (str.at var3 215)))
(assert (= "w" (str.at var12 204)))
(assert (= "D" (str.at var34 555)))
(assert (= "R" (str.at var2 351)))
(assert (= "V" (str.at var38 535)))
(assert (= "N" (str.at var30 815)))
(assert (= "s" (str.at var56 303)))
(assert (= "&" (str.at var9 127)))
(assert (= "u" (str.at var59 442)))
(assert (= "q" (str.at var14 667)))
(assert (= "R" (str.at var31 390)))
(assert (= "n" (str.at var0 366)))
(assert (= "X" (str.at var47 804)))
(assert (= "A" (str.at var31 791)))
(assert (= "A" (str.at var40 915)))
(assert (= "W" (str.at var48 914)))
(assert (= "y" (str.at var50 912)))
(assert (= "f" (str.at var13 221)))
(assert (= ":" (str.at var13 421)))
(assert (= "%" (str.at var19 499)))
(assert (= "f" (str.at var46 826)))
(assert (= "0" (str.at var56 933)))
(assert (= "K" (str.at var50 837)))
(assert (= "x" (str.at var60 218)))
(assert (= "9" (str.at var10 18)))
(assert (= "Y" (str.at var41 216)))
(assert (= "^" (str.at var13 164)))
(assert (= "1" (str.at var44 113)))
(assert (= "r" (str.at var34 308)))
(assert (= "p" (str.at var31 357)))
(assert (= ";" (str.at var39 583)))
(assert (= "y" (str.at var29 837)))
(assert (= "'" (str.at var59 864)))
(assert (= "O" (str.at var54 432)))
(assert (= "|" (str.at var32 425)))
(assert (= "X" (str.at var35 453)))
(assert (= "U" (str.at var1 594)))
(assert (= "," (str.at var37 51)))
(assert (= "!" (str.at var25 837)))
(assert (= "\\" (str.at var18 976)))
(assert (= "\\" (str.at var16 997)))
(assert (= "n" (str.at var32 172)))
(assert (= "r" (str.at var21 586)))
(assert (= "S" (str.at var29 772)))
(assert (= "]" (str.at var57 586)))
(assert (= "l" (str.at var18 818)))
(assert (= "q" (str.at var23 910)))
(assert (= "!" (str.at var29 563)))
(assert (= "+" (str.at var46 172)))
(assert (= "~" (str.at var48 234)))
(assert (= "Y" (str.at var44 854)))
(assert (= "~" (str.at var28 956)))
(assert (= "H" (str.at var39 129)))
(assert (= "<" (str.at var57 491)))
(assert (= "3" (str.at var21 405)))
(assert (= "S" (str.at var19 479)))
(assert (= "W" (str.at var40 237)))
(assert (= "M" (str.at var16 153)))
(assert (= "Q" (str.at var29 337)))
(assert (= "X" (str.at var11 454)))
(assert (= ")" (str.at var12 990)))
(assert (= "J" (str.at var56 313)))
(assert (= "{" (str.at var24 658)))
(assert (= "?" (str.at var38 333)))
(assert (= "/" (str.at var25 713)))
(assert (= "e" (str.at var34 560)))
(assert (= "+" (str.at var5 538)))
(assert (= "J" (str.at var20 651)))
(assert (= "m" (str.at var10 476)))
(assert (= "C" (str.at var32 809)))
(assert (= "e" (str.at var60 299)))
(assert (= "/" (str.at var16 67)))
(assert (= "O" (str.at var31 53)))
(assert (= "," (str.at var22 53)))
(assert (= "0" (str.at var34 917)))
(assert (= "E" (str.at var3 147)))
(assert (= "'" (str.at var60 155)))
(assert (= "@" (str.at var23 409)))
(assert (= "/" (str.at var36 457)))
(assert (= "5" (str.at var8 798)))
(assert (= "E" (str.at var17 86)))
(assert (= "@" (str.at var48 539)))
(assert (= "P" (str.at var6 335)))
(assert (= "{" (str.at var7 161)))
(assert (= "A" (str.at var4 227)))
(assert (= "Q" (str.at var41 889)))
(assert (= "]" (str.at var57 872)))
(assert (= "L" (str.at var41 169)))
(assert (= "e" (str.at var2 935)))
(assert (= "l" (str.at var30 828)))
(assert (= "u" (str.at var14 752)))
(assert (= "a" (str.at var12 727)))
(assert (= "f" (str.at var9 674)))
(assert (= "$" (str.at var49 604)))
(assert (= "r" (str.at var52 580)))
(assert (= "2" (str.at var11 903)))
(assert (= "`" (str.at var25 450)))
(assert (= "]" (str.at var36 319)))
(assert (= "/" (str.at var5 362)))
(assert (= "x" (str.at var55 710)))
(assert (= "D" (str.at var60 165)))
(assert (= "S" (str.at var59 552)))
(assert (= "x" (str.at var26 523)))
(assert (= "(" (str.at var52 972)))
(assert (= "a" (str.at var24 96)))
(assert (= "K" (str.at var42 837)))
(assert (= "u" (str.at var48 844)))
(assert (= "u" (str.at var4 644)))
(assert (= "N" (str.at var45 325)))
(assert (= "Q" (str.at var55 801)))
(assert (= "[" (str.at var4 190)))
(assert (= "L" (str.at var17 73)))
(assert (= "[" (str.at var32 37)))
(assert (= "3" (str.at var1 135)))
(assert (= "s" (str.at var17 319)))
(assert (= "#" (str.at var26 835)))
(assert (= "`" (str.at var21 125)))
(assert (= "^" (str.at var45 600)))
(assert (= "y" (str.at var58 503)))
(assert (= "b" (str.at var1 921)))
(assert (= "D" (str.at var34 331)))
(assert (= "g" (str.at var19 202)))
(assert (= "N" (str.at var26 764)))
(assert (= "I" (str.at var20 458)))
(assert (= "_" (str.at var10 95)))
(assert (= "-" (str.at var48 230)))
(assert (= "i" (str.at var30 396)))
(assert (= "6" (str.at var35 716)))
(assert (= "(" (str.at var13 608)))
(assert (= "D" (str.at var45 141)))
(assert (= "H" (str.at var42 968)))
(assert (= "|" (str.at var28 652)))
(assert (= "\\" (str.at var18 738)))
(assert (= """" (str.at var42 463)))
(assert (= "7" (str.at var10 828)))
(assert (= """" (str.at var59 148)))
(assert (= "B" (str.at var31 37)))
(assert (= "&" (str.at var26 644)))
(assert (= "o" (str.at var52 384)))
(assert (= "e" (str.at var4 461)))
(assert (= "]" (str.at var60 917)))
(assert (= "%" (str.at var23 774)))
(assert (= "<" (str.at var43 573)))
(assert (= "u" (str.at var23 891)))
(assert (= "Q" (str.at var48 617)))
(assert (= "d" (str.at var1 818)))
(assert (= "T" (str.at var34 875)))
(assert (= "G" (str.at var3 232)))
(assert (= "@" (str.at var1 339)))
(assert (= "R" (str.at var23 895)))
(assert (= "k" (str.at var42 26)))
(assert (= "," (str.at var23 978)))
(assert (= "4" (str.at var35 3)))
(assert (= "M" (str.at var23 890)))
(assert (= "$" (str.at var1 327)))
(assert (= "I" (str.at var18 693)))
(assert (= "<" (str.at var9 803)))
(assert (= "K" (str.at var39 796)))
(assert (= "}" (str.at var9 669)))
(assert (= "!" (str.at var10 115)))
(assert (= "q" (str.at var60 302)))
(assert (= "k" (str.at var25 311)))
(assert (= "w" (str.at var27 521)))
(assert (= "]" (str.at var32 140)))
(assert (= "=" (str.at var8 288)))
(assert (= "." (str.at var3 180)))
(assert (= "r" (str.at var26 317)))
(assert (= "r" (str.at var47 622)))
(assert (= "f" (str.at var57 743)))
(assert (= "?" (str.at var58 258)))
(assert (= "5" (str.at var31 473)))
(assert (= "@" (str.at var54 149)))
(assert (= "t" (str.at var46 431)))
(assert (= "D" (str.at var20 502)))
(assert (= "x" (str.at var0 232)))
(assert (= "$" (str.at var53 937)))
(assert (= "s" (str.at var39 989)))
(assert (= "T" (str.at var59 850)))
(assert (= "H" (str.at var25 132)))
(assert (= "<" (str.at var60 986)))
(assert (= "." (str.at var55 72)))
(assert (= "O" (str.at var50 731)))
(assert (= "*" (str.at var3 119)))
(assert (= "k" (str.at var41 931)))
(assert (= "k" (str.at var51 534)))
(assert (= "h" (str.at var35 12)))
(assert (= "n" (str.at var30 724)))
(assert (= "v" (str.at var4 73)))
(assert (= "E" (str.at var52 621)))
(assert (= "+" (str.at var2 224)))
(assert (= ":" (str.at var60 473)))
(assert (= "`" (str.at var53 636)))
(assert (= "G" (str.at var43 203)))
(assert (= "k" (str.at var56 633)))
(assert (= ":" (str.at var14 339)))
(assert (= ";" (str.at var37 165)))
(assert (= "H" (str.at var52 381)))
(assert (= "Z" (str.at var14 573)))
(assert (= "j" (str.at var20 338)))
(assert (= "h" (str.at var34 744)))
(assert (= "0" (str.at var2 808)))
(assert (= "5" (str.at var35 23)))
(assert (= "E" (str.at var25 535)))
(assert (= "q" (str.at var25 565)))
(assert (= "Y" (str.at var44 677)))
(assert (= "n" (str.at var27 584)))
(assert (= "P" (str.at var23 876)))
(assert (= "Q" (str.at var7 802)))
(assert (= "7" (str.at var52 23)))
(assert (= "[" (str.at var2 860)))
(assert (= "/" (str.at var9 249)))
(assert (= "N" (str.at var50 783)))
(assert (= "8" (str.at var54 99)))
(assert (= "4" (str.at var14 890)))
(assert (= "." (str.at var15 661)))
(assert (= "w" (str.at var2 690)))
(assert (= "#" (str.at var11 482)))
(assert (= "p" (str.at var2 76)))
(assert (= "p" (str.at var3 289)))
(assert (= ">" (str.at var60 118)))
(assert (= "O" (str.at var47 432)))
(assert (= "f" (str.at var21 45)))
(assert (= "#" (str.at var5 338)))
(assert (= "#" (str.at var48 770)))
(assert (= "I" (str.at var8 160)))
(assert (= "k" (str.at var20 560)))
(assert (= "g" (str.at var45 385)))
(assert (= "D" (str.at var28 16)))
(assert (= "S" (str.at var23 253)))
(assert (= "=" (str.at var59 303)))
(assert (= "3" (str.at var59 588)))
(assert (= "O" (str.at var16 496)))
(assert (= "R" (str.at var12 11)))
(assert (= "O" (str.at var15 847)))
(assert (= "q" (str.at var33 71)))
(assert (= "!" (str.at var31 972)))
(assert (= "v" (str.at var46 323)))
(assert (= "y" (str.at var58 217)))
(assert (= "]" (str.at var60 731)))
(assert (= "$" (str.at var48 67)))
(assert (= "N" (str.at var29 561)))
(assert (= "z" (str.at var24 41)))
(assert (= "p" (str.at var39 971)))
(assert (= "h" (str.at var22 820)))
(assert (= "%" (str.at var20 732)))
(assert (= "O" (str.at var28 852)))
(assert (= "f" (str.at var46 888)))
(assert (= "Y" (str.at var15 141)))
(assert (= "!" (str.at var60 210)))
(assert (= "w" (str.at var54 781)))
(assert (= "-" (str.at var54 530)))
(assert (= ")" (str.at var45 505)))
(assert (= ":" (str.at var52 687)))
(assert (= "R" (str.at var35 529)))
(assert (= "9" (str.at var35 707)))
(assert (= "l" (str.at var10 759)))
(assert (= "(" (str.at var44 42)))
(assert (= "V" (str.at var1 948)))
(assert (= "(" (str.at var45 72)))
(assert (= "2" (str.at var9 986)))
(assert (= "B" (str.at var36 183)))
(assert (= "r" (str.at var19 372)))
(assert (= "l" (str.at var32 604)))
(assert (= "." (str.at var10 53)))
(assert (= "Z" (str.at var0 408)))
(assert (= "Z" (str.at var41 234)))
(assert (= "+" (str.at var39 837)))
(assert (= "=" (str.at var44 781)))
(assert (= "J" (str.at var43 590)))
(assert (= """" (str.at var22 598)))
(assert (= "Q" (str.at var16 632)))
(assert (= ":" (str.at var55 590)))
(assert (= "X" (str.at var55 643)))
(assert (= "," (str.at var42 350)))
(assert (= "=" (str.at var3 544)))
(assert (= "-" (str.at var37 453)))
(assert (= "6" (str.at var26 355)))
(assert (= "q" (str.at var40 816)))
(assert (= "X" (str.at var50 711)))
(assert (= ":" (str.at var27 369)))
(assert (= "9" (str.at var33 670)))
(assert (= "." (str.at var9 976)))
(assert (= "0" (str.at var3 982)))
(assert (= "t" (str.at var16 808)))
(assert (= "d" (str.at var39 576)))
(assert (= "P" (str.at var26 992)))
(assert (= "e" (str.at var2 590)))
(assert (= "|" (str.at var34 430)))
(assert (= "U" (str.at var22 971)))
(assert (= "u" (str.at var52 966)))
(assert (= "/" (str.at var41 953)))
(assert (= "M" (str.at var15 831)))
(assert (= "w" (str.at var42 963)))
(assert (= "A" (str.at var3 514)))
(assert (= "^" (str.at var24 885)))
(assert (= "J" (str.at var26 250)))
(assert (= "$" (str.at var7 483)))
(assert (= "R" (str.at var1 794)))
(assert (= "l" (str.at var21 431)))
(assert (= "7" (str.at var58 617)))
(assert (= "Q" (str.at var60 853)))
(assert (= "p" (str.at var17 942)))
(assert (= "b" (str.at var49 87)))
(assert (= "u" (str.at var38 384)))
(assert (= "x" (str.at var9 144)))
(assert (= "O" (str.at var45 598)))
(assert (= "n" (str.at var27 647)))
(assert (= "2" (str.at var49 456)))
(assert (= "&" (str.at var39 259)))
(assert (= "g" (str.at var11 692)))
(assert (= "S" (str.at var0 654)))
(assert (= "j" (str.at var29 971)))
(assert (= "~" (str.at var32 959)))
(assert (= "G" (str.at var59 979)))
(assert (= "x" (str.at var23 898)))
(assert (= "S" (str.at var4 941)))
(assert (= "j" (str.at var41 170)))
(assert (= "4" (str.at var30 411)))
(assert (= "(" (str.at var32 449)))
(assert (= "f" (str.at var56 795)))
(assert (= "C" (str.at var50 576)))
(assert (= "z" (str.at var20 852)))
(assert (= "F" (str.at var42 382)))
(assert (= "s" (str.at var57 682)))
(assert (= "e" (str.at var60 376)))
(assert (= "n" (str.at var43 237)))
(assert (= "," (str.at var55 558)))
(assert (= "8" (str.at var23 664)))
(assert (= "y" (str.at var33 706)))
(assert (= "P" (str.at var17 260)))
(assert (= "y" (str.at var21 703)))
(assert (= "j" (str.at var21 505)))
(assert (= "U" (str.at var4 141)))
(assert (= "6" (str.at var8 760)))
(assert (= "X" (str.at var5 730)))
(assert (= "8" (str.at var39 61)))
(assert (= "x" (str.at var35 282)))
(assert (= "t" (str.at var1 876)))
(assert (= "@" (str.at var34 408)))
(assert (= "K" (str.at var13 723)))
(assert (= "&" (str.at var18 793)))
(assert (= "I" (str.at var12 754)))
(assert (= "-" (str.at var2 383)))
(assert (= "n" (str.at var16 415)))
(assert (= "B" (str.at var41 984)))
(assert (= "W" (str.at var54 111)))
(assert (= "j" (str.at var30 790)))
(assert (= "e" (str.at var22 520)))
(assert (= "H" (str.at var23 585)))
(assert (= "|" (str.at var27 937)))
(assert (= ";" (str.at var10 159)))
(assert (= "'" (str.at var60 958)))
(assert (= "K" (str.at var46 822)))
(assert (= "w" (str.at var37 504)))
(assert (= ":" (str.at var24 156)))
(assert (= "B" (str.at var4 914)))
(assert (= "0" (str.at var9 176)))
(assert (= "d" (str.at var47 739)))
(assert (= "e" (str.at var4 728)))
(assert (= "U" (str.at var36 364)))
(assert (= "X" (str.at var36 636)))
(assert (= ")" (str.at var19 175)))
(assert (= "*" (str.at var59 141)))
(assert (= "e" (str.at var52 140)))
(assert (= "b" (str.at var24 697)))
(assert (= "y" (str.at var16 35)))
(assert (= "r" (str.at var26 141)))
(assert (= "c" (str.at var34 745)))
(assert (= "]" (str.at var16 646)))
(assert (= "3" (str.at var16 498)))
(assert (= "*" (str.at var31 103)))
(assert (= "9" (str.at var33 360)))
(assert (= "D" (str.at var14 546)))
(assert (= "1" (str.at var8 739)))
(assert (= "C" (str.at var32 924)))
(assert (= "." (str.at var30 387)))
(assert (= "0" (str.at var51 16)))
(assert (= "A" (str.at var49 284)))
(assert (= "#" (str.at var22 262)))
(assert (= "L" (str.at var14 86)))
(assert (= "<" (str.at var2 121)))
(assert (= "$" (str.at var1 814)))
(assert (= "h" (str.at var52 990)))
(assert (= "!" (str.at var5 517)))
(assert (= "M" (str.at var51 917)))
(assert (= "Z" (str.at var1 870)))
(assert (= "%" (str.at var60 108)))
(assert (= """" (str.at var31 160)))
(assert (= "%" (str.at var18 686)))
(assert (= "2" (str.at var46 625)))
(assert (= "u" (str.at var47 47)))
(assert (= "U" (str.at var35 107)))
(assert (= "d" (str.at var56 88)))
(assert (= "f" (str.at var29 165)))
(assert (= "e" (str.at var2 58)))
(assert (= "=" (str.at var12 821)))
(assert (= "]" (str.at var12 677)))
(assert (= "?" (str.at var57 22)))
(assert (= "i" (str.at var37 967)))
(assert (= "u" (str.at var35 192)))
(assert (= "V" (str.at var27 167)))
(assert (= "<" (str.at var15 994)))
(assert (= "<" (str.at var57 765)))
(assert (= "B" (str.at var54 540)))
(assert (= "L" (str.at var20 386)))
(assert (= "Z" (str.at var0 858)))
(assert (= "9" (str.at var39 224)))
(assert (= "p" (str.at var43 334)))
(assert (= "=" (str.at var25 937)))
(assert (= "j" (str.at var41 513)))
(assert (= "Z" (str.at var60 525)))
(assert (= "[" (str.at var14 729)))
(assert (= "K" (str.at var1 226)))
(assert (= "e" (str.at var4 619)))
(assert (= "C" (str.at var9 808)))
(assert (= "m" (str.at var4 988)))
(assert (= "{" (str.at var23 694)))
(assert (= "." (str.at var50 423)))
(assert (= "W" (str.at var12 215)))
(assert (= "9" (str.at var8 532)))
(assert (= "t" (str.at var8 473)))
(assert (= "1" (str.at var38 796)))
(assert (= "<" (str.at var57 772)))
(assert (= "m" (str.at var14 957)))
(assert (= "\\" (str.at var14 246)))
(assert (= "J" (str.at var6 188)))
(assert (= "S" (str.at var23 821)))
(assert (= "e" (str.at var0 745)))
(assert (= "=" (str.at var47 853)))
(assert (= "C" (str.at var9 564)))
(assert (= "[" (str.at var57 915)))
(assert (= """" (str.at var36 804)))
(assert (= "N" (str.at var23 569)))
(assert (= "J" (str.at var38 509)))
(assert (= "R" (str.at var46 885)))
(assert (= "s" (str.at var37 367)))
(assert (= "U" (str.at var54 230)))
(assert (= "e" (str.at var47 16)))
(assert (= "1" (str.at var20 617)))
(assert (= "h" (str.at var45 33)))
(assert (= "d" (str.at var36 861)))
(assert (= "2" (str.at var59 264)))
(assert (= "`" (str.at var50 787)))
(assert (= "z" (str.at var28 338)))
(assert (= "<" (str.at var29 857)))
(assert (= "y" (str.at var19 245)))
(assert (= "|" (str.at var53 656)))
(assert (= "Z" (str.at var21 436)))
(assert (= ";" (str.at var39 611)))
(assert (= "U" (str.at var40 595)))
(assert (= "F" (str.at var15 486)))
(assert (= "d" (str.at var17 345)))
(assert (= "*" (str.at var56 348)))
(assert (= "z" (str.at var29 387)))
(assert (= "n" (str.at var44 271)))
(assert (= "N" (str.at var22 355)))
(assert (= "4" (str.at var1 182)))
(assert (= "7" (str.at var38 959)))
(assert (= "L" (str.at var17 385)))
(assert (= "#" (str.at var10 210)))
(assert (= "{" (str.at var35 823)))
(assert (= "_" (str.at var4 938)))
(assert (= "@" (str.at var18 641)))
(assert (= "C" (str.at var9 434)))
(assert (= "2" (str.at var41 7)))
(assert (= "a" (str.at var53 53)))
(assert (= "I" (str.at var28 897)))
(assert (= "c" (str.at var9 265)))
(assert (= "#" (str.at var3 500)))
(assert (= "9" (str.at var22 748)))
(assert (= "l" (str.at var53 513)))
(assert (= "!" (str.at var39 503)))
(assert (= "." (str.at var27 878)))
(assert (= "E" (str.at var47 668)))
(assert (= "[" (str.at var34 131)))
(assert (= "`" (str.at var45 749)))
(assert (= "`" (str.at var54 571)))
(assert (= "{" (str.at var40 8)))
(assert (= "N" (str.at var6 998)))
(assert (= "L" (str.at var36 737)))
(assert (= "#" (str.at var45 122)))
(assert (= "u" (str.at var55 415)))
(assert (= "H" (str.at var59 354)))
(assert (= "9" (str.at var30 963)))
(assert (= "j" (str.at var25 606)))
(assert (= "}" (str.at var41 829)))
(assert (= "2" (str.at var35 105)))
(assert (= "V" (str.at var13 309)))
(assert (= "y" (str.at var10 318)))
(assert (= ":" (str.at var32 850)))
(assert (= "B" (str.at var40 86)))
(assert (= "/" (str.at var20 310)))
(assert (= "I" (str.at var3 366)))
(assert (= "C" (str.at var19 58)))
(assert (= "2" (str.at var42 283)))
(assert (= "U" (str.at var54 658)))
(assert (= "6" (str.at var18 651)))
(assert (= "i" (str.at var17 110)))
(assert (= "`" (str.at var49 296)))
(assert (= "|" (str.at var44 202)))
(assert (= "$" (str.at var11 886)))
(assert (= "B" (str.at var16 406)))
(assert (= "B" (str.at var9 426)))
(assert (= "`" (str.at var14 773)))
(assert (= "`" (str.at var31 922)))
(assert (= "B" (str.at var23 959)))
(assert (= "4" (str.at var50 235)))
(assert (= "U" (str.at var18 286)))
(assert (= "T" (str.at var53 700)))
(assert (= "," (str.at var52 835)))
(assert (= "c" (str.at var15 860)))
(assert (= "D" (str.at var43 208)))
(assert (= "R" (str.at var41 1)))
(assert (= "c" (str.at var47 158)))
(assert (= "E" (str.at var31 347)))
(assert (= "#" (str.at var23 654)))
(assert (= "1" (str.at var37 613)))
(assert (= "<" (str.at var45 662)))
(assert (= "0" (str.at var29 202)))
(assert (= "9" (str.at var53 715)))
(assert (= ":" (str.at var39 495)))
(assert (= "b" (str.at var45 154)))
(assert (= "D" (str.at var0 382)))
(assert (= "z" (str.at var5 592)))
(assert (= "k" (str.at var37 156)))
(assert (= "&" (str.at var48 257)))
(check-sat)